Results/Experiment 1 Results/Existing Benchmark/RES_100/i-100-75-8.txt
solutions: 0 nodes: 3  modelTime: 132  solveTime: 27  totalTime: 174  modelSize: 8403  readTime: 15 matchingSize: 0
