Results/Experiment 2 Results/Existing Benchmark/i-100-75-8.lp
clingo version 5.4.0
Reading from tempSRTISolver.lp ...
Solving...
UNSATISFIABLE

Models       : 0
Calls        : 1
Time         : 31.831s (Solving: 4.55s 1st Model: 0.00s Unsat: 4.55s)
CPU Time     : 31.809s
